Test: battleship-24-57-sat.cnf
Options: -no-inverting-opt -activity-nl-freq=1
WARNING: for repeatability, setting FPU to use double precision
============================[ Problem Statistics ]=============================
|                                                                             |
|  Number of symmetries:           41                                         |
|  Number of invertingSyms:         0                                         |
|  Number of variables:          1368                                         |
|  Number of clauses:           16308                                         |
|  Parse time:                   0.01 s                                       |
|                                                                             |
============================[ Search Statistics ]==============================
| Conflicts |          ORIGINAL         |          LEARNT          | Progress |
|           |    Vars  Clauses Literals |    Limit  Clauses Lit/Cl |          |
===============================================================================
|       100 |    1368    16308    64296 |     5979      105    412 |  0.000 % |
|       250 |    1368    16308    64296 |     6577      260    382 |  0.000 % |
|       475 |    1368    16308    64296 |     7235      521    385 |  0.000 % |
|       812 |    1368    16308    64296 |     7958     1001    332 |  0.000 % |
|      1318 |    1368    16308    64296 |     8754     1696    346 |  0.000 % |
|      2077 |    1368    16308    64296 |     9630     2745    321 |  0.000 % |
|      3216 |    1368    16308    64296 |    10593     4400    329 |  0.000 % |
|      4924 |    1368    16308    64296 |    11652     6782    316 |  0.000 % |
|      7486 |    1368    16308    64296 |    12817    10276    325 |  0.000 % |
|     11330 |    1368    16308    64296 |    14099     9253    337 |  0.000 % |
|     17096 |    1368    16308    64296 |    15509     9745    350 |  0.000 % |
|     25745 |    1368    16308    64296 |    17060    14069    343 |  0.000 % |
|     38719 |    1368    16308    64296 |    18766    14149    417 |  0.000 % |
===============================================================================
restarts              : 140
conflicts             : 46874          (4087 /sec)
symconflicts          : 3545           (309 /sec)
decisions             : 307797         (0.00 % random) (26838 /sec)
propagations          : 1486256        (129592 /sec)
sympropagations       : 17942          (1564 /sec)
conflict literals     : 19653173       (1.26 % deleted)
literals     : 19653173       (1.26 % deleted)

HEURISTIC USAGES
random                : 0           
activity w/ lookahead : 0           
activity no lookahead : 307796      
original sp           : 0           
sym count             : 0           

Memory used           : 112.00 MB
CPU time              : 11.4687 s

SATISFIABLE
